0 2
0 3
1 4
1 6
1 8
1 9
1 16
1 20
1 22
2 3
2 7
2 13
2 17
2 22
2 31
3 4
3 10
3 13
3 17
3 23
4 14
4 17
4 19
5 7
5 13
5 26
5 28
6 13
6 17
6 18
6 23
6 31
7 8
7 22
7 24
8 13
10 12
10 31
11 20
11 22
12 21
12 31
13 18
14 19
14 21
14 23
15 24
16 18
16 27
17 20
19 27
20 31
21 28
24 26
